
Gurobi 10.0.1 (win64) logging started Sun Aug 27 19:51:51 2023

Set parameter LogFile to value "results//log/Fattahi_setup_12_modified_old_deadline.log"
Gurobi Optimizer version 10.0.1 build v10.0.1rc0 (win64)

CPU model: AMD Ryzen 7 3700X 8-Core Processor, instruction set [SSE2|AVX|AVX2]
Thread count: 8 physical cores, 16 logical processors, using up to 16 threads

Optimize a model with 347 rows, 317 columns and 1367 nonzeros
Model fingerprint: 0x9f14de3a
Model has 1 quadratic constraint
Variable types: 39 continuous, 278 integer (277 binary)
Coefficient statistics:
  Matrix range     [1e+00, 1e+06]
  QMatrix range    [1e+00, 1e+00]
  QLMatrix range   [1e+00, 4e+02]
  Objective range  [1e+00, 1e+00]
  Bounds range     [1e+00, 1e+00]
  RHS range        [1e+00, 3e+06]
Presolve removed 45 rows and 158 columns
Presolve time: 0.00s
Presolved: 316 rows, 172 columns, 1372 nonzeros
Variable types: 52 continuous, 120 integer (119 binary)
Found heuristic solution: objective 10170.000000
Found heuristic solution: objective 5197.0000000

Root relaxation: objective 0.000000e+00, 46 iterations, 0.00 seconds (0.00 work units)

    Nodes    |    Current Node    |     Objective Bounds      |     Work
 Expl Unexpl |  Obj  Depth IntInf | Incumbent    BestBd   Gap | It/Node Time

     0     0    0.00000    0   19 5197.00000    0.00000   100%     -    0s
H    0     0                    5174.0000000    0.00000   100%     -    0s
     0     0    0.00000    0   18 5174.00000    0.00000   100%     -    0s
H    0     0                    4355.0000000    0.00000   100%     -    0s
     0     0    0.00000    0   24 4355.00000    0.00000   100%     -    0s
H    0     0                    3706.0000000    0.00000   100%     -    0s
H    0     0                    3636.0000000    0.00000   100%     -    0s
     0     0    0.00000    0    7 3636.00000    0.00000   100%     -    0s
H    0     0                    3340.0000000    0.00000   100%     -    0s
     0     0    0.00000    0   21 3340.00000    0.00000   100%     -    0s
     0     0  546.93043    0   19 3340.00000  546.93043  83.6%     -    0s
     0     0 1283.18398    0   26 3340.00000 1283.18398  61.6%     -    0s
     0     0 1290.25790    0   26 3340.00000 1290.25790  61.4%     -    0s
     0     0 1291.05524    0   27 3340.00000 1291.05524  61.3%     -    0s
     0     0 1433.06515    0   28 3340.00000 1433.06515  57.1%     -    0s
     0     0 1434.49382    0   27 3340.00000 1434.49382  57.1%     -    0s
     0     0 1612.83638    0   25 3340.00000 1612.83638  51.7%     -    0s
     0     0 1612.83966    0   25 3340.00000 1612.83966  51.7%     -    0s
     0     0 1619.03484    0   23 3340.00000 1619.03484  51.5%     -    0s
     0     0 1619.03484    0   22 3340.00000 1619.03484  51.5%     -    0s
     0     0 1619.41310    0   23 3340.00000 1619.41310  51.5%     -    0s
     0     0 1620.00000    0   21 3340.00000 1620.00000  51.5%     -    0s
     0     0 1620.00000    0   11 3340.00000 1620.00000  51.5%     -    0s
     0     2 1620.00000    0    9 3340.00000 1620.00000  51.5%     -    0s
H   32    28                    3276.0000000 1620.00000  50.5%  27.7    0s
H   68    50                    3176.0000000 1620.00000  49.0%  18.7    0s
H  381   198                    3114.0000000 1620.00000  48.0%   7.6    0s
H  389   198                    3088.0000000 1620.00000  47.5%   7.8    0s
H 1458   693                    3087.0000000 1668.17553  46.0%   5.9    0s
H 1458   671                    2972.0000000 1668.17553  43.9%   5.9    0s
H 2750  1274                    2971.0000000 1681.02490  43.4%   5.4    0s
H 3304  1212                    2970.0000000 1693.36053  43.0%   5.3    0s
H 3307  1153                    2943.0000000 1693.36053  42.5%   5.3    0s
H 3822  1247                    2932.0000000 1798.00000  38.7%   4.1    1s
*13243  2331              50    2908.0000000 2212.00000  23.9%   8.6    2s
 29780  2268 infeasible   46      2908.00000 2525.00000  13.2%  11.5    5s

Cutting planes:
  Learned: 112
  Gomory: 68
  Cover: 22
  Implied bound: 6
  Projected implied bound: 2
  MIR: 807
  StrongCG: 1
  Flow cover: 1194
  GUB cover: 1
  Inf proof: 6
  Zero half: 1
  RLT: 1
  Relax-and-lift: 7

Explored 42778 nodes (558649 simplex iterations) in 8.47 seconds (5.47 work units)
Thread count was 16 (of 16 available processors)

Solution count 10: 2908 2932 2943 ... 3176

Optimal solution found (tolerance 1.00e-04)
Best objective 2.908000000000e+03, best bound 2.908000000000e+03, gap 0.0000%
Warning: constraint name "precedence between 0,1 to 0,0 if x_[j,l,h,z,i]=1" has a space
Warning: constraint name "precedence between 0,1 to 0,0 if x_[j,l,h,z,i]=1" has a space
Warning: default constraint names used to write mps file
